========================================================== 
File name: C:\DEGR\assets\definitions\MSRCPSP_Gen\200_20_64_10_D.def
Creation date: Wed May 03 10:47:28 CEST 2023
Website: http://imopse.ii.pwr.edu.pl/ 
Reference: 
Myszkowski P. B., Skowronski M. E., Olech L., Oslizlo K., 
Hybrid Ant Colony Optimization in solving Multi-Skill Resource-Constrained Project Scheduling Problem, 
Soft Computing, DOI: DOI 10.1007/s00500-014-1455-x 
========================================================== 
General characteristics: 
Tasks: 200
Resources: 20
Precedence relations: 63
Number of skill types: 10
========================================================== 
ResourceID 	 Salary 	 Skills 
1	 	 	36.4	 	 Q5: 2 	  Q7: 1 	 
2	 	 	65.6	 	 Q5: 0 	  Q0: 1 	  Q3: 2 	  Q1: 3 	  Q7: 0 	 
3	 	 	74.1	 	 Q0: 2 	  Q8: 2 	  Q5: 2 	  Q4: 3 	  Q3: 1 	  Q6: 0 	  Q2: 3 	  Q9: 2 	  Q7: 2 	 
4	 	 	62.7	 	 Q4: 0 	  Q6: 0 	  Q5: 1 	  Q7: 2 	  Q2: 1 	  Q9: 2 	  Q1: 1 	  Q8: 0 	 
5	 	 	26.1	 	 Q4: 3 	  Q1: 3 	  Q7: 0 	  Q5: 3 	 
6	 	 	84.3	 	 Q6: 0 	  Q0: 0 	  Q2: 0 	 
7	 	 	26.0	 	 Q7: 0 	  Q4: 2 	  Q2: 3 	 
8	 	 	64.0	 	 Q4: 3 	  Q2: 2 	 
9	 	 	23.3	 	 Q8: 1 	  Q5: 2 	  Q1: 2 	  Q0: 2 	  Q4: 1 	  Q6: 0 	  Q3: 0 	 
10	 	 	46.2	 	 Q9: 1 	  Q1: 1 	  Q8: 2 	 
11	 	 	88.5	 	 Q5: 0 	 
12	 	 	92.7	 	 Q4: 0 	  Q3: 3 	  Q7: 3 	  Q8: 3 	  Q6: 2 	  Q9: 3 	  Q5: 1 	  Q1: 3 	 
13	 	 	97.5	 	 Q3: 3 	  Q8: 3 	  Q1: 3 	  Q2: 1 	 
14	 	 	87.9	 	 Q3: 2 	  Q2: 2 	 
15	 	 	51.5	 	 Q8: 2 	  Q2: 1 	 
16	 	 	84.4	 	 Q5: 3 	  Q8: 0 	 
17	 	 	87.8	 	 Q6: 0 	  Q4: 3 	 
18	 	 	40.6	 	 Q8: 0 	  Q5: 3 	  Q6: 3 	  Q7: 0 	 
19	 	 	72.3	 	 Q5: 1 	  Q2: 2 	  Q1: 2 	  Q3: 2 	  Q8: 0 	  Q6: 2 	  Q9: 2 	 
20	 	 	25.5	 	 Q7: 3 	  Q4: 1 	  Q2: 3 	  Q9: 2 	  Q3: 0 	  Q1: 0 	  Q8: 0 	  Q5: 1 	 
========================================================== 
TaskID 	 Duration 	 Skill 	 Predecessor IDs 
1	35	Q8:	2
2	25	Q2:	0
3	13	Q9:	2
4	34	Q1:	0
5	34	Q8:	2
6	25	Q6:	2
7	39	Q8:	3
8	28	Q5:	0
9	20	Q3:	2
10	17	Q9:	3
11	36	Q3:	2	6
12	21	Q8:	0
13	34	Q4:	3
14	22	Q7:	0
15	19	Q1:	1
16	15	Q2:	3
17	9	Q8:	0
18	29	Q0:	0
19	17	Q3:	3
20	26	Q9:	3
21	26	Q0:	0
22	9	Q0:	0
23	12	Q1:	0
24	22	Q4:	1
25	27	Q8:	2
26	35	Q5:	0
27	31	Q1:	1
28	30	Q5:	2
29	24	Q6:	0
30	13	Q5:	2
31	35	Q4:	2
32	35	Q7:	3
33	23	Q4:	3
34	17	Q9:	2
35	38	Q3:	3
36	16	Q6:	3
37	19	Q5:	0
38	18	Q4:	3
39	21	Q5:	1
40	11	Q2:	0
41	22	Q0:	0
42	25	Q2:	3
43	34	Q5:	2
44	36	Q5:	0
45	26	Q6:	2
46	8	Q1:	2
47	25	Q3:	0
48	18	Q5:	1
49	35	Q2:	0	1
50	31	Q8:	1
51	18	Q2:	3
52	23	Q1:	0
53	32	Q3:	3
54	24	Q2:	1
55	26	Q8:	1
56	14	Q2:	1
57	35	Q4:	0
58	16	Q7:	3
59	38	Q6:	0
60	34	Q7:	2
61	13	Q5:	2
62	19	Q7:	2
63	29	Q4:	0
64	28	Q8:	2
65	17	Q7:	0
66	22	Q8:	0	32
67	30	Q5:	2
68	31	Q3:	1
69	30	Q3:	3
70	18	Q2:	2
71	13	Q3:	0
72	26	Q6:	0	60
73	38	Q3:	3
74	12	Q7:	2
75	25	Q3:	1	38
76	21	Q7:	1
77	23	Q7:	2
78	40	Q1:	3
79	21	Q4:	0
80	23	Q5:	1
81	24	Q7:	1
82	23	Q5:	0	26
83	10	Q2:	2	38
84	32	Q7:	1	49
85	19	Q3:	0
86	33	Q5:	2
87	35	Q1:	0	75	49
88	27	Q4:	1	36
89	31	Q0:	1
90	15	Q4:	2	42	41
91	19	Q0:	2
92	23	Q5:	1
93	15	Q6:	2	29
94	40	Q2:	0
95	26	Q7:	1	51
96	15	Q2:	0
97	9	Q3:	1
98	27	Q3:	1
99	9	Q2:	0	76
100	35	Q4:	3
101	33	Q3:	3	31
102	31	Q8:	1
103	38	Q6:	2
104	33	Q3:	1
105	10	Q2:	0
106	20	Q0:	0	5
107	13	Q2:	1	26
108	36	Q2:	3	92
109	21	Q7:	1
110	27	Q2:	2	23
111	11	Q7:	3
112	20	Q9:	1
113	36	Q4:	3
114	26	Q2:	2
115	39	Q7:	0
116	20	Q0:	2
117	40	Q4:	2	102
118	40	Q6:	2	78
119	15	Q4:	2
120	36	Q2:	3	38
121	14	Q9:	2	26
122	15	Q5:	3
123	27	Q4:	3
124	30	Q4:	3	92
125	15	Q6:	2
126	35	Q4:	2
127	33	Q1:	0
128	10	Q1:	0	8
129	36	Q8:	3
130	39	Q5:	2	7
131	35	Q7:	3
132	11	Q1:	0	114	125
133	20	Q7:	2
134	28	Q3:	2
135	31	Q6:	0
136	21	Q6:	2
137	33	Q7:	3	71
138	21	Q2:	2
139	17	Q8:	1	17
140	12	Q4:	2
141	24	Q2:	0
142	31	Q4:	1	131
143	26	Q6:	0	135
144	29	Q1:	1	57
145	33	Q2:	3
146	19	Q2:	2
147	35	Q4:	1	44
148	33	Q9:	3
149	10	Q5:	0	9
150	24	Q5:	3
151	15	Q1:	3
152	32	Q6:	0
153	38	Q2:	1	58
154	31	Q9:	1
155	29	Q8:	1	110
156	21	Q2:	2	94	127
157	12	Q9:	3
158	30	Q7:	1
159	18	Q4:	2
160	32	Q6:	0	79
161	40	Q4:	1
162	29	Q7:	3
163	39	Q1:	1
164	35	Q5:	0	140
165	20	Q9:	1
166	39	Q5:	3	19
167	24	Q2:	0	16
168	21	Q9:	2
169	16	Q5:	1
170	29	Q8:	3
171	20	Q8:	1
172	14	Q4:	1
173	9	Q5:	1
174	35	Q1:	1	54	89
175	10	Q5:	2
176	12	Q5:	3
177	35	Q2:	0	82
178	17	Q8:	2
179	24	Q8:	1
180	9	Q0:	1
181	15	Q3:	1
182	10	Q1:	3
183	40	Q8:	3
184	39	Q4:	1	55	2
185	28	Q6:	0
186	32	Q9:	3
187	17	Q3:	3
188	11	Q4:	2
189	19	Q5:	2	3
190	22	Q4:	2
191	28	Q4:	3	88	100
192	15	Q8:	3	68	187	115
193	30	Q9:	1
194	15	Q8:	1
195	10	Q9:	1	141	61
196	9	Q3:	3	109
197	28	Q8:	0
198	28	Q1:	2	148	190
199	30	Q8:	3	59
200	22	Q2:	0	109
========================================================== 